Optimal - objective value 276433.33340000
      0 C0000000      -716.66667                       0
      1 C0000001       283.33333                       0
      2 C0000002               0                       0
      3 C0000003             550                       0
      4 C0000004               0                       0
      5 C0000005               0                       0
      6 C0000006       716.66667                      20
      7 C0000007           -1000                       0
      8 C0000008               0                       0
      9 C0000009            -475                       0
     10 C0000010              75                       0
     11 C0000011               0                     -56
     12 C0000012             100                       0
     13 C0000013            1575                      44
     14 C0000014               0                       0
     15 C0000015               0                       0
     16 C0000016            -550                       0
     17 C0000017               0                       0
     18 C0000018            -100                       0
     19 C0000019 -2.8421709e-014                       0
     20 C0000020             775                    6000
     21 C0000021            -850                       0
     22 C0000022             150                       0
     23 C0000023               0                       0
     24 C0000024             550                       0
     25 C0000025               0                       0
     26 C0000026               0                       0
     27 C0000027             850                      20
      0 X0000000               0                    5980
      1 X0000001               0                    5956
      2 X0000002              25                       0
      3 X0000003               0                    5980
      4 X0000004               1                       0
      5 X0000005               1                       0
      6 X0000006               0                       0
      7 X0000007               1                       0
      8 X0000008               1                       0
      9 X0000009               1                    5600
     10 X0000010               1                       0
     11 X0000011               1                       0
     12 X0000012               1                       0
     13 X0000013               1                       0
     14 X0000014               0                       0
     15 X0000015       716.66667                       0
     16 X0000016               0                      24
     17 X0000017               0                      80
     18 X0000018            1000                     -24
     19 X0000019             475                       0
     20 X0000020             100                       0
     21 X0000021               0                   -5980
     22 X0000022             550                   -5956
     23 X0000023             200                   -5900
     24 X0000024             850                       0
     25 X0000025               0                      24
     26 X0000026               0                      80
